JulietBench/Juliet_Based_Patch_Bench/linux/CWE-189-Numeric-Errors/CVE_2013_6367_b963a22e6d1a266a67e9eecc88134713fd54775c/Resultapic_get_tmcct_Snippet_patch1NEQ.smt2
; benchmark generated from python API
(set-info :status unknown)
(declare-fun R () (_ BitVec 32))
(declare-fun rdi () (_ BitVec 64))
(declare-fun rsi () (_ BitVec 64))
(assert
 (let (($x72 (= (_ bv0 32) R)))
 (let ((?x6 ((_ extract 31 0) rdi)))
 (let (($x10 (= (_ bv0 32) ?x6)))
 (let (($x73 (and $x10 $x72)))
 (let (($x36 (and (distinct (_ bv0 32) ?x6) true)))
 (let (($x52 (= (_ bv0 64) rsi)))
 (let (($x76 (and $x52 $x36 $x72)))
 (let (($x70 (= (_ bv1 32) R)))
 (let (($x59 (and (distinct (_ bv0 64) rsi) true)))
 (let (($x75 (and $x59 $x36 $x70)))
 (let (($x77 (or $x75 $x76 $x73)))
 (let (($x80 (not $x77)))
 (let (($x71 (and $x36 $x70)))
 (let (($x74 (or $x71 $x73)))
 (let (($x79 (not $x74)))
 (let (($x81 (and $x79 $x80)))
 (let (($x78 (and $x74 $x77)))
 (let (($x82 (or $x78 $x81)))
 (not $x82))))))))))))))))))))
(check-sat)
